Maximize

  25 x_0 + 45 x_1 + 70 x_2 + 10 x_3 + 15 x_4 + 20 x_5 + 30 x_6 + 35 x_7 + 20 x_8 + 40 x_9 + 50 x_10 + 55 x_11 + 15 x_12 + 22 x_13 + 30 x_14


Subject To


   c0: x_3 + x_4 <= 1
   c1: x_4 + x_5 <= 1
   c2: x_7 + x_8 <= 1
   c3: x_7 + x_9 <= 1
   c4: x_7 + x_10 <= 1
   c5: x_7 + x_11 <= 1
   c6: x_9 + x_10 <= 1
   c7: x_9 + x_11 <= 1
   c8: x_9 + x_12 <= 1
   c9: x_12 + x_13 <= 1
   c10: x_12 + x_14 <= 1
   c11: x_13 + x_14 <= 1

Binary

x_0 x_1 x_2 x_3 x_4 x_5 x_6 x_7 x_8 x_9 x_10 x_11 x_12 x_13 x_14
End


